(declare-datatypes () ((Nat2 (Z) (S (p Nat2)))))
(declare-datatypes () ((Nat (Z2) (S2 (q Nat)))))
(declare-datatypes () ((list (nil) (cons (head Nat) (tail list)))))
(declare-fun take (Nat2 list) list)
(declare-fun lmerge (list list) list)
(declare-fun length (list) Nat2)
(declare-fun insert2 (Nat list) list)
(declare-fun isort (list) list)
(declare-fun half (Nat2) Nat2)
(declare-fun drop (Nat2 list) list)
(declare-fun nmsorttd (list) list)
(declare-fun le (Nat Nat) Bool)
(assert (forall ((y list)) (= (take Z y) nil)))
(assert (forall ((z Nat2)) (= (take (S z) nil) nil)))
(assert
  (forall ((z Nat2) (x2 Nat) (x3 list))
    (= (take (S z) (cons x2 x3)) (cons x2 (take z x3)))))
(assert (forall ((y list)) (= (lmerge nil y) y)))
(assert
  (forall ((z Nat) (x2 list))
    (= (lmerge (cons z x2) nil) (cons z x2))))
(assert
  (forall ((z Nat) (x2 list) (x3 Nat) (x4 list))
    (=> (= (le z x3) true)
      (= (lmerge (cons z x2) (cons x3 x4))
        (cons z (lmerge x2 (cons x3 x4)))))))
(assert
  (forall ((z Nat) (x2 list) (x3 Nat) (x4 list))
    (=> (= (le z x3) false)
      (= (lmerge (cons z x2) (cons x3 x4))
        (cons x3 (lmerge (cons z x2) x4))))))
(assert (= (length nil) Z))
(assert
  (forall ((y Nat) (xs list))
    (= (length (cons y xs)) (S (length xs)))))
(assert (forall ((x Nat)) (= (insert2 x nil) (cons x nil))))
(assert
  (forall ((x Nat) (z Nat) (xs list))
    (=> (= (le x z) true)
      (= (insert2 x (cons z xs)) (cons x (cons z xs))))))
(assert
  (forall ((x Nat) (z Nat) (xs list))
    (=> (= (le x z) false)
      (= (insert2 x (cons z xs)) (cons z (insert2 x xs))))))
(assert (= (isort nil) nil))
(assert
  (forall ((y Nat) (xs list))
    (= (isort (cons y xs)) (insert2 y (isort xs)))))
(assert (= (half Z) Z))
(assert (= (half (S Z)) Z))
(assert (forall ((n Nat2)) (= (half (S (S n))) (S (half n)))))
(assert (forall ((y list)) (= (drop Z y) y)))
(assert (forall ((z Nat2)) (= (drop (S z) nil) nil)))
(assert
  (forall ((z Nat2) (x2 Nat) (x3 list))
    (= (drop (S z) (cons x2 x3)) (drop z x3))))
(assert (= (nmsorttd nil) nil))
(assert
  (forall ((y Nat)) (= (nmsorttd (cons y nil)) (cons y nil))))
(assert
  (forall ((y Nat) (x2 Nat) (x3 list) (k Nat2))
    (=> (= k (half (length (cons y (cons x2 x3)))))
      (= (nmsorttd (cons y (cons x2 x3)))
        (lmerge (nmsorttd (take k (cons y (cons x2 x3))))
          (nmsorttd (drop k (cons y (cons x2 x3)))))))))
(assert (forall ((y Nat)) (= (le Z2 y) true)))
(assert (forall ((z Nat)) (= (le (S2 z) Z2) false)))
(assert
  (forall ((z Nat) (x2 Nat)) (= (le (S2 z) (S2 x2)) (le z x2))))
(assert-not (forall ((x list)) (= (nmsorttd x) (isort x))))
(check-sat)
